; benchmark generated from python API
(set-info :status unknown)
(declare-fun S_1 () Real)
(declare-fun A_2 () Real)
(declare-fun L_0 () Real)
(declare-fun A_1 () Real)
(declare-fun S_0 () Real)
(declare-fun A_0 () Real)
(declare-fun loss_rate_tol () Real)
(assert
 (let (($x952 (not (<= 0.0 loss_rate_tol))))
 (let (($x317 (not (<= 0.0 (+ (* (- (/ 4.0 5.0)) A_0) L_0 S_1 (* (- (/ 1.0 5.0)) A_2))))))
 (let (($x1089 (or (not (<= 0.0 (+ (* (- 1.0) A_2) A_1 loss_rate_tol))) $x317 $x952)))
 (let (($x1099 (or (not (<= 0.0 (+ A_0 (* (- 1.0) A_2)))) (not (<= (+ A_0 A_2 (* (- 2.0) A_1)) 0.0)) $x952)))
 (let (($x846 (<= (+ (* (/ 3.0 4.0) A_1) (* (- (/ 3.0 4.0)) A_2)) 0.0)))
 (let (($x297 (or (not (<= 0.0 (+ (* (/ 1.0 5.0) A_0) (* (- (/ 1.0 5.0)) A_2)))) $x846 $x952)))
 (let (($x756 (<= (+ (* (/ 1.0 2.0) A_0) (* (- (/ 1.0 2.0)) A_2)) 0.0)))
 (let (($x1105 (or (not (<= 0.0 (+ (* (/ 1.0 4.0) A_1) (* (- (/ 1.0 4.0)) A_2)))) $x756 $x952)))
 (let (($x1098 (or $x756 $x846)))
 (let (($x739 (or (not (<= (+ A_0 (* (- 1.0) A_1)) 0.0)) $x756)))
 (let (($x672 (not (<= (+ (* (/ 4.0 5.0) A_0) (* (- 1.0) A_1) (* (/ 1.0 5.0) A_2)) 0.0))))
 (let (($x353 (<= (+ A_0 (* (- 1.0) A_1)) 0.0)))
 (let (($x857 (or $x353 $x672)))
 (and $x857 $x739 $x1098 $x1105 (or $x317 $x846 $x952) $x297 $x1099 $x1089 (<= (+ (* (- 1.0) S_1) S_0) 0.0) (<= (+ (* (- 1.0) A_0) L_0 S_0) 0.0) (<= (+ L_0 S_1 (* (- 1.0) A_1)) 0.0) (<= (+ L_0 (* (- 1.0) A_2) S_1) 0.0))))))))))))))))
(check-sat)
